 c ['eatenCake0', 'haveCake0', 'bakeCake0', 'eatCake0', 'eatenCake1', 'haveCake1', 'bakeCake1', 'eatCake1', 'eatenCake2', 'haveCake2']
p cnf 10 21
2 0
10 0
9 0
-4 2 0
-4 -6 0
-4 5 0
-3 -2 0
-3 6 0
-3 -1 5 0
-3 1 -5 0
4 3 0
-3 -4 0
-8 6 0
-8 -10 0
-8 9 0
-7 -6 0
-7 10 0
-7 -5 9 0
-7 5 -9 0
8 7 0
-7 -8 0
